!B3LYP D4 cc-pVTZ Opt Freq PAL4

* XYZFILE 0 1 dien.xyz
