!B3LYP D4 cc-pVTZ NEB-TS Freq PAL4

%neb
NEB_END_XYZFile "product_DFT_B3LYP_D4_opt.xyz"
end

%geom
    MaxIter 2000
end

* XYZFILE 0 1 uebergangszustand_DFT_B3LYP_D4_opt.xyz
